NAME 
ROWS
 N  OBJ
 G  R0      
 G  R1      
 G  R2      
 G  R3      
 G  R4      
 G  R5      
 G  R6      
 G  R7      
 G  R8      
 G  R9      
 G  R10     
 G  R11     
 G  R12     
 G  R13     
 G  R14     
 G  R15     
 G  R16     
 G  R17     
 G  R18     
 G  R19     
 G  R20     
 G  R21     
 G  R22     
 G  R23     
 G  R24     
 G  R25     
 G  R26     
 G  R27     
 G  R28     
 G  R29     
 G  R30     
 G  R31     
COLUMNS
    x0        OBJ       1
    x0        R0        1
    x0        R1        1
    x0        R2        1
    x0        R4        1
    x0        R8        1
    x0        R16       1
    x1        OBJ       1
    x1        R0        1
    x1        R1        1
    x1        R3        1
    x1        R5        1
    x1        R9        1
    x1        R17       1
    x2        OBJ       1
    x2        R0        1
    x2        R2        1
    x2        R3        1
    x2        R6        1
    x2        R10       1
    x2        R18       1
    x3        OBJ       1
    x3        R1        1
    x3        R2        1
    x3        R3        1
    x3        R7        1
    x3        R11       1
    x3        R19       1
    x4        OBJ       1
    x4        R0        1
    x4        R4        1
    x4        R5        1
    x4        R6        1
    x4        R12       1
    x4        R20       1
    x5        OBJ       1
    x5        R1        1
    x5        R4        1
    x5        R5        1
    x5        R7        1
    x5        R13       1
    x5        R21       1
    x6        OBJ       1
    x6        R2        1
    x6        R4        1
    x6        R6        1
    x6        R7        1
    x6        R14       1
    x6        R22       1
    x7        OBJ       1
    x7        R3        1
    x7        R5        1
    x7        R6        1
    x7        R7        1
    x7        R15       1
    x7        R23       1
    x8        OBJ       1
    x8        R0        1
    x8        R8        1
    x8        R9        1
    x8        R10       1
    x8        R12       1
    x8        R24       1
    x9        OBJ       1
    x9        R1        1
    x9        R8        1
    x9        R9        1
    x9        R11       1
    x9        R13       1
    x9        R25       1
    x10       OBJ       1
    x10       R2        1
    x10       R8        1
    x10       R10       1
    x10       R11       1
    x10       R14       1
    x10       R26       1
    x11       OBJ       1
    x11       R3        1
    x11       R9        1
    x11       R10       1
    x11       R11       1
    x11       R15       1
    x11       R27       1
    x12       OBJ       1
    x12       R4        1
    x12       R8        1
    x12       R12       1
    x12       R13       1
    x12       R14       1
    x12       R28       1
    x13       OBJ       1
    x13       R5        1
    x13       R9        1
    x13       R12       1
    x13       R13       1
    x13       R15       1
    x13       R29       1
    x14       OBJ       1
    x14       R6        1
    x14       R10       1
    x14       R12       1
    x14       R14       1
    x14       R15       1
    x14       R30       1
    x15       OBJ       1
    x15       R7        1
    x15       R11       1
    x15       R13       1
    x15       R14       1
    x15       R15       1
    x15       R31       1
    x16       OBJ       1
    x16       R0        1
    x16       R16       1
    x16       R17       1
    x16       R18       1
    x16       R20       1
    x16       R24       1
    x17       OBJ       1
    x17       R1        1
    x17       R16       1
    x17       R17       1
    x17       R19       1
    x17       R21       1
    x17       R25       1
    x18       OBJ       1
    x18       R2        1
    x18       R16       1
    x18       R18       1
    x18       R19       1
    x18       R22       1
    x18       R26       1
    x19       OBJ       1
    x19       R3        1
    x19       R17       1
    x19       R18       1
    x19       R19       1
    x19       R23       1
    x19       R27       1
    x20       OBJ       1
    x20       R4        1
    x20       R16       1
    x20       R20       1
    x20       R21       1
    x20       R22       1
    x20       R28       1
    x21       OBJ       1
    x21       R5        1
    x21       R17       1
    x21       R20       1
    x21       R21       1
    x21       R23       1
    x21       R29       1
    x22       OBJ       1
    x22       R6        1
    x22       R18       1
    x22       R20       1
    x22       R22       1
    x22       R23       1
    x22       R30       1
    x23       OBJ       1
    x23       R7        1
    x23       R19       1
    x23       R21       1
    x23       R22       1
    x23       R23       1
    x23       R31       1
    x24       OBJ       1
    x24       R8        1
    x24       R16       1
    x24       R24       1
    x24       R25       1
    x24       R26       1
    x24       R28       1
    x25       OBJ       1
    x25       R9        1
    x25       R17       1
    x25       R24       1
    x25       R25       1
    x25       R27       1
    x25       R29       1
    x26       OBJ       1
    x26       R10       1
    x26       R18       1
    x26       R24       1
    x26       R26       1
    x26       R27       1
    x26       R30       1
    x27       OBJ       1
    x27       R11       1
    x27       R19       1
    x27       R25       1
    x27       R26       1
    x27       R27       1
    x27       R31       1
    x28       OBJ       1
    x28       R12       1
    x28       R20       1
    x28       R24       1
    x28       R28       1
    x28       R29       1
    x28       R30       1
    x29       OBJ       1
    x29       R13       1
    x29       R21       1
    x29       R25       1
    x29       R28       1
    x29       R29       1
    x29       R31       1
    x30       OBJ       1
    x30       R14       1
    x30       R22       1
    x30       R26       1
    x30       R28       1
    x30       R30       1
    x30       R31       1
    x31       OBJ       1
    x31       R15       1
    x31       R23       1
    x31       R27       1
    x31       R29       1
    x31       R30       1
    x31       R31       1
RHS
    RHS1      R0        1
    RHS1      R1        1
    RHS1      R2        1
    RHS1      R3        1
    RHS1      R4        1
    RHS1      R5        1
    RHS1      R6        1
    RHS1      R7        1
    RHS1      R8        1
    RHS1      R9        1
    RHS1      R10       1
    RHS1      R11       1
    RHS1      R12       1
    RHS1      R13       1
    RHS1      R14       1
    RHS1      R15       1
    RHS1      R16       1
    RHS1      R17       1
    RHS1      R18       1
    RHS1      R19       1
    RHS1      R20       1
    RHS1      R21       1
    RHS1      R22       1
    RHS1      R23       1
    RHS1      R24       1
    RHS1      R25       1
    RHS1      R26       1
    RHS1      R27       1
    RHS1      R28       1
    RHS1      R29       1
    RHS1      R30       1
    RHS1      R31       1
BOUNDS
 UP BND1      x0        1
 UP BND1      x1        1
 UP BND1      x2        1
 UP BND1      x3        1
 UP BND1      x4        1
 UP BND1      x5        1
 UP BND1      x6        1
 UP BND1      x7        1
 UP BND1      x8        1
 UP BND1      x9        1
 UP BND1      x10       1
 UP BND1      x11       1
 UP BND1      x12       1
 UP BND1      x13       1
 UP BND1      x14       1
 UP BND1      x15       1
 UP BND1      x16       1
 UP BND1      x17       1
 UP BND1      x18       1
 UP BND1      x19       1
 UP BND1      x20       1
 UP BND1      x21       1
 UP BND1      x22       1
 UP BND1      x23       1
 UP BND1      x24       1
 UP BND1      x25       1
 UP BND1      x26       1
 UP BND1      x27       1
 UP BND1      x28       1
 UP BND1      x29       1
 UP BND1      x30       1
 UP BND1      x31       1
ENDATA
